NAME : XML100_1275_17
DIMENSION : 101
NB_CLUSTERS : 3
CLUSTERING_ALG : DBSCAN
CLUSTERING_PARAMS : eps(178), minSamples(3)
CLUSTERS
1 0
2 1 2 5 6 7 11 15 17 18 19 20 22 34 35 41 43 45 47 49 50 52 54 60 61 65 67 69 71 72 76 77 78 80 81 94 95 97 100
3 3 4 8 9 10 12 13 14 16 21 23 24 25 26 27 28 29 30 31 32 33 36 37 38 39 40 42 44 46 48 51 53 55 56 57 58 59 62 63 64 66 68 70 73 74 75 79 82 83 84 85 86 87 88 89 90 91 92 93 96 98 99
EOF